A                                       
   1.00000000000000     
    19.1103786706631062   -0.4949184108101543    0.5120266254884046
     0.7254091605238123    6.8696931995449830    0.4547009757996273
     3.0390808875146824    1.3645045224643952   10.0941244485984019
   O    N    C    P    Al   H 
    28     8    24     8     4    60
Direct
  0.3084720460510074  0.1182918524982662  0.6094920555123735
  0.3350624158675105  0.2327984879526656  0.3442565738764385
  0.8080151608381059  0.6150853557317230  0.6149899685067124
  0.8302188797099234  0.7217321504194857  0.3475769726768864
  0.7219082901619553  0.2454305299829607  0.3425338225208272
  0.6553464280575253  0.1463981762740529  0.6206592026845619
  0.2198890986346056  0.7545529884642082  0.3387438513717259
  0.1570554890565574  0.6519833281648920  0.6136471474371691
  0.6916831420219445  0.8800658665315074  0.3911196531796077
  0.6653863727405069  0.7658890462761068  0.6563448689233318
  0.1925888734165630  0.3835392925377840  0.3848678648935888
  0.1700342837852209  0.2766348066843490  0.6523465904137956
  0.2781642128226612  0.7530204124170670  0.6578627876464975
  0.3451327466329787  0.8522816285506299  0.3796496639286402
  0.7808624867018551  0.2440260483343647  0.6609713411152428
  0.8432966018202440  0.3464914313101479  0.3860671922281860
  0.2134056748273165  0.0128407141470599  0.4932266436930419
  0.3667416868984453  0.8661960177510614  0.7624751926014318
  0.3572837998334764  0.0742148058839982  0.1422075187579492
  0.7099731554110114  0.5020819626021849  0.5050541910076097
  0.8685875604352330  0.3631529623393043  0.7642694683359729
  0.8563366106574946  0.5616839146028423  0.1454741747084428
  0.7870268903097865  0.9857532279349358  0.5066738514672663
  0.6334075456077651  0.1318102271095667  0.2379331494441307
  0.6433900688128088  0.9248414697400292  0.8581664354754392
  0.2904246368400191  0.4964352492089976  0.4952642207344169
  0.1320247821965430  0.6356631670583021  0.2357212068123040
  0.1439254341547152  0.4367920786892778  0.8543853216429919
  0.2298738131257078  0.1392284971803862  0.9133280115839087
  0.7304818923454588  0.6290827241525909  0.9189823336619926
  0.7704294552670069  0.8594272627152768  0.0868366914398453
  0.2700663477653881  0.3690519518525334  0.0811563471332503
  0.4998922870137278  0.0353209487795807  0.3608695353065465
  0.9990360845656774  0.5338824046775731  0.3606106860544731
  0.5003118425325528  0.9641358262114920  0.6404894854552753
  0.0014333094490681  0.4652301495880154  0.6387303547725348
  0.4728313086273745  0.1890948036147504  0.4446704467962075
  0.3050310901430094  0.2269784985050334  0.8740459000742531
  0.9717189933203023  0.6876765917195000  0.4442224235052651
  0.8055514211914201  0.7161355366402516  0.8813662723471773
  0.5114566162332326  0.1667479692408120  0.5524600071602144
  0.0112552338404339  0.6677379118443922  0.5505079265995413
  0.5272882011705217  0.8103157660494017  0.5567112307652362
  0.6954085623998841  0.7708149248738223  0.1263495421695613
  0.7998603828469635  0.9032597941117778  0.9359702580183951
  0.7006650577397369  0.5850862653974587  0.0701541007635732
  0.0288374945822981  0.3115506204977997  0.5550886341934860
  0.1948382436484188  0.2831795911877300  0.1184337695461247
  0.3000287366758847  0.4127224407244074  0.9300590878407188
  0.2001525621885016  0.0959945694984799  0.0641180423421915
  0.4885761224268533  0.8328222822668654  0.4490482530051818
  0.9893452107797541  0.3312527654424249  0.4487559565028961
  0.4681850718821688  0.0610900923642190  0.2451554955635590
  0.2231935360971471  0.9597166738431180  0.8579237921889632
  0.9658942440593862  0.5571156856255014  0.2471024725935606
  0.7245410613954496  0.4495190129486890  0.8627878722659630
  0.5322458146818505  0.9382597633035401  0.7558953629835574
  0.7770394855969623  0.0385966936745588  0.1427125107323284
  0.0344293747527921  0.4418239438793802  0.7524361731414742
  0.2760758427708298  0.5488165716046530  0.1370420770401282
  0.2998407603291031  0.9193776802501996  0.7108215776378100
  0.3673607792701163  0.0519286293921958  0.2816119977357340
  0.8011427046669708  0.4130763405823082  0.7139285552168779
  0.8650939027637361  0.5430789061460847  0.2855228275575261
  0.7003079544045294  0.0788721927862104  0.2896647095972535
  0.6331544396524311  0.9468918021106559  0.7189096177584938
  0.1995002766829356  0.5855038776762211  0.2859286991410873
  0.1352170023730098  0.4554488578308160  0.7142963792629030
  0.2510780327363223  0.2532296282368593  0.4989198300690769
  0.7500630071520169  0.2458154050722459  0.5005302408237788
  0.7493015173281954  0.7452799734657529  0.5013323094777785
  0.2503449893841292  0.7527557302447443  0.4995343680143977
  0.4129158896154301  0.1768262093806061  0.4892882853394198
  0.4857948930603883  0.3346265352238638  0.3761572002809773
  0.3243345167592598  0.2679596833632991  0.7631993826237908
  0.3416358494386635  0.1142119688880673  0.9117309784222242
  0.9119316090580196  0.6729368150533204  0.4896006594491593
  0.9832992417829719  0.8333083608777992  0.3753516656235195
  0.8262253611959792  0.7534927616638158  0.7707369995654931
  0.8415634590132848  0.6039520913552345  0.9213382804945065
  0.5708618228557829  0.1934606549742429  0.5105008438796032
  0.4869665064866208  0.2733872337660254  0.6178088164546857
  0.0705211524331847  0.6958966491765776  0.5071019544576462
  0.9871602504851517  0.7743999246234047  0.6160395259062508
  0.5142472712808225  0.6648808963637070  0.6253647940259477
  0.5872158822858576  0.8223429556636085  0.5120713658983614
  0.6586005564326031  0.8832060298743898  0.0889477790095297
  0.6762460179727138  0.7296186098833874  0.2371853403828280
  0.8545197646827531  0.9687223434823550  0.9069044162375730
  0.7633351581827605  0.0125814488285489  0.8946024153617205
  0.6458828873940233  0.5206255458195983  0.0987996922538868
  0.7369113521412702  0.4745858324925155  0.1112300371440463
  0.0174737041820307  0.1658073974619036  0.6238795647304328
  0.0886050748443063  0.3267483745946064  0.5095485424890348
  0.1591644926669932  0.3958821171235057  0.0779438978847228
  0.1739169954912562  0.2463593389660722  0.2290319117642438
  0.3549077838778549  0.4765189213254188  0.9016052478833827
  0.2640243396895115  0.5237617254409650  0.8887444006758323
  0.1452956312140915  0.0318451113632430  0.0927875683490618
  0.2362261266288002  0.9856838848658696  0.1059609973651756
  0.5128366957507980  0.7258195800350548  0.3838760352473346
  0.4291549948947156  0.8065304898630349  0.4912632541871393
  0.0136953447392986  0.2248948934270872  0.3831211202886040
  0.9301008687715238  0.3025404903914002  0.4919226101919191
  0.4871754931382991  0.2053828084097539  0.1794169782113928
  0.4936850614251279  0.9460755704369317  0.1875559732493648
  0.2162815054935426  0.8284087429381622  0.9401968188241191
  0.1728497636896648  0.9816146870679506  0.8267527138013057
  0.9836287843950394  0.7018898476122506  0.1808368882192417
  0.9913626142767403  0.4426084455534150  0.1890309825927871
  0.7186584851688238  0.3176205402186574  0.9444020744180482
  0.6736098918850750  0.4700059526628029  0.8334856526256131
  0.5070204126171413  0.0535512840256792  0.8134143870843253
  0.5131832728867801  0.7941577827948908  0.8218621367237251
  0.8271890769309190  0.0160837928993043  0.1745085192367868
  0.7841911690979034  0.1702268394697787  0.0606251018470210
  0.0090257081075923  0.5565501945844382  0.8103567902066904
  0.0165001881947117  0.2971816705286829  0.8187292956284342
  0.3270825102733434  0.5287127919554905  0.1660895285177881
  0.2818923571007604  0.6804603649167940  0.0552659423989056
  0.6605710588502143  0.4891219941173879  0.5681620205845537
  0.8234258133722262  0.9631039539993702  0.5551831914124653
  0.1772071951383191  0.0357380504956396  0.4442762187454869
  0.3397423936154234  0.5094344154452859  0.4318338395976981
  0.9413980040441268  0.4350719159686192  0.6890603933263678
  0.5603461212898041  0.0632209462170227  0.3119665055379993
  0.0590677678400394  0.5640533891290949  0.3102702228311068
  0.6949384797419568  0.7479496582212050  0.8834634923116533
  0.1943669299873308  0.2588696878067296  0.8783018010247075
  0.8060750500747169  0.7399060252296904  0.1214642647491170
  0.4399457923129912  0.9360032611795515  0.6892696598501694
  0.3055330695795585  0.2498658234948628  0.1169099331384396
 
  0.00000000E+00  0.00000000E+00  0.00000000E+00
  0.00000000E+00  0.00000000E+00  0.00000000E+00
  0.00000000E+00  0.00000000E+00  0.00000000E+00
  0.00000000E+00  0.00000000E+00  0.00000000E+00
  0.00000000E+00  0.00000000E+00  0.00000000E+00
  0.00000000E+00  0.00000000E+00  0.00000000E+00
  0.00000000E+00  0.00000000E+00  0.00000000E+00
  0.00000000E+00  0.00000000E+00  0.00000000E+00
  0.00000000E+00  0.00000000E+00  0.00000000E+00
  0.00000000E+00  0.00000000E+00  0.00000000E+00
  0.00000000E+00  0.00000000E+00  0.00000000E+00
  0.00000000E+00  0.00000000E+00  0.00000000E+00
  0.00000000E+00  0.00000000E+00  0.00000000E+00
  0.00000000E+00  0.00000000E+00  0.00000000E+00
  0.00000000E+00  0.00000000E+00  0.00000000E+00
  0.00000000E+00  0.00000000E+00  0.00000000E+00
  0.00000000E+00  0.00000000E+00  0.00000000E+00
  0.00000000E+00  0.00000000E+00  0.00000000E+00
  0.00000000E+00  0.00000000E+00  0.00000000E+00
  0.00000000E+00  0.00000000E+00  0.00000000E+00
  0.00000000E+00  0.00000000E+00  0.00000000E+00
  0.00000000E+00  0.00000000E+00  0.00000000E+00
  0.00000000E+00  0.00000000E+00  0.00000000E+00
  0.00000000E+00  0.00000000E+00  0.00000000E+00
  0.00000000E+00  0.00000000E+00  0.00000000E+00
  0.00000000E+00  0.00000000E+00  0.00000000E+00
  0.00000000E+00  0.00000000E+00  0.00000000E+00
  0.00000000E+00  0.00000000E+00  0.00000000E+00
  0.00000000E+00  0.00000000E+00  0.00000000E+00
  0.00000000E+00  0.00000000E+00  0.00000000E+00
  0.00000000E+00  0.00000000E+00  0.00000000E+00
  0.00000000E+00  0.00000000E+00  0.00000000E+00
  0.00000000E+00  0.00000000E+00  0.00000000E+00
  0.00000000E+00  0.00000000E+00  0.00000000E+00
  0.00000000E+00  0.00000000E+00  0.00000000E+00
  0.00000000E+00  0.00000000E+00  0.00000000E+00
  0.00000000E+00  0.00000000E+00  0.00000000E+00
  0.00000000E+00  0.00000000E+00  0.00000000E+00
  0.00000000E+00  0.00000000E+00  0.00000000E+00
  0.00000000E+00  0.00000000E+00  0.00000000E+00
  0.00000000E+00  0.00000000E+00  0.00000000E+00
  0.00000000E+00  0.00000000E+00  0.00000000E+00
  0.00000000E+00  0.00000000E+00  0.00000000E+00
  0.00000000E+00  0.00000000E+00  0.00000000E+00
  0.00000000E+00  0.00000000E+00  0.00000000E+00
  0.00000000E+00  0.00000000E+00  0.00000000E+00
  0.00000000E+00  0.00000000E+00  0.00000000E+00
  0.00000000E+00  0.00000000E+00  0.00000000E+00
  0.00000000E+00  0.00000000E+00  0.00000000E+00
  0.00000000E+00  0.00000000E+00  0.00000000E+00
  0.00000000E+00  0.00000000E+00  0.00000000E+00
  0.00000000E+00  0.00000000E+00  0.00000000E+00
  0.00000000E+00  0.00000000E+00  0.00000000E+00
  0.00000000E+00  0.00000000E+00  0.00000000E+00
  0.00000000E+00  0.00000000E+00  0.00000000E+00
  0.00000000E+00  0.00000000E+00  0.00000000E+00
  0.00000000E+00  0.00000000E+00  0.00000000E+00
  0.00000000E+00  0.00000000E+00  0.00000000E+00
  0.00000000E+00  0.00000000E+00  0.00000000E+00
  0.00000000E+00  0.00000000E+00  0.00000000E+00
  0.00000000E+00  0.00000000E+00  0.00000000E+00
  0.00000000E+00  0.00000000E+00  0.00000000E+00
  0.00000000E+00  0.00000000E+00  0.00000000E+00
  0.00000000E+00  0.00000000E+00  0.00000000E+00
  0.00000000E+00  0.00000000E+00  0.00000000E+00
  0.00000000E+00  0.00000000E+00  0.00000000E+00
  0.00000000E+00  0.00000000E+00  0.00000000E+00
  0.00000000E+00  0.00000000E+00  0.00000000E+00
  0.00000000E+00  0.00000000E+00  0.00000000E+00
  0.00000000E+00  0.00000000E+00  0.00000000E+00
  0.00000000E+00  0.00000000E+00  0.00000000E+00
  0.00000000E+00  0.00000000E+00  0.00000000E+00
  0.00000000E+00  0.00000000E+00  0.00000000E+00
  0.00000000E+00  0.00000000E+00  0.00000000E+00
  0.00000000E+00  0.00000000E+00  0.00000000E+00
  0.00000000E+00  0.00000000E+00  0.00000000E+00
  0.00000000E+00  0.00000000E+00  0.00000000E+00
  0.00000000E+00  0.00000000E+00  0.00000000E+00
  0.00000000E+00  0.00000000E+00  0.00000000E+00
  0.00000000E+00  0.00000000E+00  0.00000000E+00
  0.00000000E+00  0.00000000E+00  0.00000000E+00
  0.00000000E+00  0.00000000E+00  0.00000000E+00
  0.00000000E+00  0.00000000E+00  0.00000000E+00
  0.00000000E+00  0.00000000E+00  0.00000000E+00
  0.00000000E+00  0.00000000E+00  0.00000000E+00
  0.00000000E+00  0.00000000E+00  0.00000000E+00
  0.00000000E+00  0.00000000E+00  0.00000000E+00
  0.00000000E+00  0.00000000E+00  0.00000000E+00
  0.00000000E+00  0.00000000E+00  0.00000000E+00
  0.00000000E+00  0.00000000E+00  0.00000000E+00
  0.00000000E+00  0.00000000E+00  0.00000000E+00
  0.00000000E+00  0.00000000E+00  0.00000000E+00
  0.00000000E+00  0.00000000E+00  0.00000000E+00
  0.00000000E+00  0.00000000E+00  0.00000000E+00
  0.00000000E+00  0.00000000E+00  0.00000000E+00
  0.00000000E+00  0.00000000E+00  0.00000000E+00
  0.00000000E+00  0.00000000E+00  0.00000000E+00
  0.00000000E+00  0.00000000E+00  0.00000000E+00
  0.00000000E+00  0.00000000E+00  0.00000000E+00
  0.00000000E+00  0.00000000E+00  0.00000000E+00
  0.00000000E+00  0.00000000E+00  0.00000000E+00
  0.00000000E+00  0.00000000E+00  0.00000000E+00
  0.00000000E+00  0.00000000E+00  0.00000000E+00
  0.00000000E+00  0.00000000E+00  0.00000000E+00
  0.00000000E+00  0.00000000E+00  0.00000000E+00
  0.00000000E+00  0.00000000E+00  0.00000000E+00
  0.00000000E+00  0.00000000E+00  0.00000000E+00
  0.00000000E+00  0.00000000E+00  0.00000000E+00
  0.00000000E+00  0.00000000E+00  0.00000000E+00
  0.00000000E+00  0.00000000E+00  0.00000000E+00
  0.00000000E+00  0.00000000E+00  0.00000000E+00
  0.00000000E+00  0.00000000E+00  0.00000000E+00
  0.00000000E+00  0.00000000E+00  0.00000000E+00
  0.00000000E+00  0.00000000E+00  0.00000000E+00
  0.00000000E+00  0.00000000E+00  0.00000000E+00
  0.00000000E+00  0.00000000E+00  0.00000000E+00
  0.00000000E+00  0.00000000E+00  0.00000000E+00
  0.00000000E+00  0.00000000E+00  0.00000000E+00
  0.00000000E+00  0.00000000E+00  0.00000000E+00
  0.00000000E+00  0.00000000E+00  0.00000000E+00
  0.00000000E+00  0.00000000E+00  0.00000000E+00
  0.00000000E+00  0.00000000E+00  0.00000000E+00
  0.00000000E+00  0.00000000E+00  0.00000000E+00
  0.00000000E+00  0.00000000E+00  0.00000000E+00
  0.00000000E+00  0.00000000E+00  0.00000000E+00
  0.00000000E+00  0.00000000E+00  0.00000000E+00
  0.00000000E+00  0.00000000E+00  0.00000000E+00
  0.00000000E+00  0.00000000E+00  0.00000000E+00
  0.00000000E+00  0.00000000E+00  0.00000000E+00
  0.00000000E+00  0.00000000E+00  0.00000000E+00
  0.00000000E+00  0.00000000E+00  0.00000000E+00
  0.00000000E+00  0.00000000E+00  0.00000000E+00
