A
1.0
       20.7306995392         0.0000000000         0.0000000000
        1.0030628355         6.0274067244         0.0000000000
        3.0215369034         0.5933421584        11.5763683413
    O    N    C    P   Al    H
   28    8   24    8    4   60
Direct
     0.304089993         0.131789997         0.604610026
     0.316529989         0.182559997         0.352690011
     0.807479978         0.626389980         0.605499983
     0.814369977         0.695249975         0.359820008
     0.733680010         0.257319987         0.349200010
     0.651639998         0.207560003         0.592639983
     0.232160002         0.766319990         0.350199997
     0.152710006         0.721480012         0.614310026
     0.691209972         0.881900012         0.390219986
     0.668860018         0.796880007         0.640699983
     0.190620005         0.384590000         0.386409998
     0.171240002         0.292780012         0.634389997
     0.275680006         0.748210013         0.647920012
     0.343180001         0.813910007         0.435710013
     0.780179977         0.236350000         0.644949973
     0.846830010         0.290540010         0.409500003
     0.203209996         0.029859999         0.500850022
     0.374790013         0.851199985         0.716880023
     0.357840002         0.863330007         0.201609999
     0.706499994         0.514209986         0.502640009
     0.878579974         0.337099999         0.714500010
     0.854409993         0.446090013         0.191479996
     0.786689997         0.971700013         0.505280018
     0.638249993         0.185259998         0.265309989
     0.632139981         0.050600000         0.809099972
     0.285820007         0.485670000         0.502380013
     0.140310004         0.690289974         0.257490009
     0.139620006         0.493270010         0.808730006
     0.246280000         0.171700001         0.895139992
     0.748820007         0.653379977         0.896979988
     0.767369986         0.813899994         0.106030002
     0.268029988         0.328079998         0.103340000
     0.483949989         0.996420026         0.381069988
     0.982749999         0.528810024         0.383150011
     0.500670016         0.013470000         0.611729980
     0.000640000         0.506770015         0.614849985
     0.458499998         0.198949993         0.445529997
     0.314359993         0.167319998         0.912119985
     0.952499986         0.712800026         0.460759997
     0.816269994         0.649659991         0.916960001
     0.500779986         0.216639996         0.531419992
     0.994379997         0.723360002         0.548349977
     0.530120015         0.818379998         0.541830003
     0.699699998         0.819079995         0.085639998
     0.816309988         0.832470000         0.993439972
     0.699530005         0.635230005         0.009189963
     0.033890001         0.331979990         0.532649994
     0.199770004         0.337049991         0.084360003
     0.316229999         0.346810013         0.989690006
     0.198310003         0.154750004         0.008290052
     0.487890005         0.797990024         0.457830012
     0.992389977         0.317979991         0.446319997
     0.451920003         0.963649988         0.290050000
     0.243719995         0.984229982         0.829530001
     0.951240003         0.520020008         0.288619995
     0.746949971         0.467440009         0.829379976
     0.534829974         0.024730001         0.705039978
     0.769990027         0.002780000         0.170980006
     0.036580000         0.494520009         0.707769990
     0.271849990         0.514949977         0.169249997
     0.302500010         0.933210015         0.689629972
     0.360419989         0.949000001         0.324270010
     0.805850029         0.423150003         0.689580023
     0.861320019         0.483990014         0.319440007
     0.706860006         0.075060003         0.304349989
     0.627719998         0.022490000         0.677510023
     0.207829997         0.580420017         0.301039994
     0.129120007         0.504220009         0.678300023
     0.245859995         0.253820002         0.498950005
     0.754570007         0.251500010         0.498140007
     0.744740009         0.747669995         0.497660011
     0.249720007         0.764280021         0.500930011
     0.405559987         0.203639999         0.493750006
     0.460440010         0.343199998         0.383679986
     0.348850012         0.195230007         0.828249991
     0.332610011         0.002990000         0.948960006
     0.900420010         0.698300004         0.507529974
     0.951099992         0.869480014         0.408050001
     0.851549983         0.677230000         0.833809972
     0.834630013         0.485799998         0.954360008
     0.552779973         0.237570003         0.485900015
     0.478130013         0.361090004         0.583670020
     0.044629999         0.763429999         0.502990007
     0.969389975         0.853320003         0.609019995
     0.530619979         0.669529974         0.600350022
     0.582130015         0.833079994         0.494040012
     0.683019996         0.981819987         0.045380000
     0.663720012         0.799679995         0.169139996
     0.866540015         0.821370006         0.010210000
     0.804610014         0.995109975         0.948970020
     0.649349988         0.646019995         0.992500007
     0.710789979         0.471709996         0.053859949
     0.038330000         0.171639994         0.581529975
     0.084480003         0.366320014         0.486240000
     0.182889998         0.501240015         0.045850001
     0.164370000         0.315429986         0.168270007
     0.367249995         0.332850009         0.003420000
     0.305290014         0.512179971         0.946850002
     0.147560000         0.167510003         0.993560016
     0.209900007         0.990880013         0.052430034
     0.513040006         0.656970024         0.404179990
     0.437669992         0.759050012         0.504670024
     0.021139979         0.193580002         0.384400010
     0.944410026         0.258179992         0.490280002
     0.459349990         0.096000001         0.221259996
     0.478199989         0.808369994         0.249730006
     0.251300007         0.824909985         0.880599976
     0.193759993         0.996150017         0.812020004
     0.956019998         0.672699988         0.233089998
     0.979260027         0.382470012         0.234249994
     0.753880024         0.307069987         0.879509985
     0.697049975         0.482879996         0.811219990
     0.511030018         0.173869997         0.752990007
     0.525290012         0.881020010         0.765929997
     0.817950010         0.980579972         0.196750000
     0.768079996         0.159070000         0.116480000
     0.012180000         0.625419974         0.768450022
     0.029500000         0.335280001         0.756229997
     0.319379985         0.484699994         0.196270004
     0.271530002         0.671980023         0.115659997
     0.664479971         0.511350036         0.560970008
     0.808120012         0.938870013         0.569410026
     0.159440041         0.036010027         0.554679990
     0.309350014         0.458889961         0.563929975
     0.905579984         0.277660012         0.774510026
     0.613129973         0.264360011         0.208969995
     0.115199998         0.768809974         0.201120004
     0.673979998         0.961179972         0.822529972
     0.181970000         0.393779993         0.811950028
     0.815460026         0.550230026         0.173079997
     0.404089987         0.790589988         0.773289979
     0.322140008         0.962750018         0.170249999
