CIF file                                
   1.00000000000000     
    18.5638870733660148   -0.2941525441327125    0.3926363106450327
    -0.1051523607349053    6.8284680383820477    1.2149865477657871
    -0.0273839752842773    2.0867551936826287   11.8082137426658065
   O    C    H    N    Al   P 
    28    24    60     8     4     8
Direct
  0.3203645129236578  0.1253156728139273  0.6131757821994125
  0.3188377784211567  0.2638136984310011  0.3731839194064018
  0.8203856704197541  0.6252720573198878  0.6131430507381631
  0.8187686467147902  0.7636623933275715  0.3730957368793480
  0.6776317807923122  0.2350087452802440  0.3901501486587754
  0.6857884340988730  0.1000773385370344  0.6303819604490940
  0.1776863472605111  0.7348946253353997  0.3904524880404603
  0.1858457438549332  0.5998934979031328  0.6306722051382732
  0.6798914538955836  0.8721918252488389  0.3826293285929349
  0.6814853763472430  0.7336696429291057  0.6226943798805924
  0.1798754385538132  0.3721672349046086  0.3826978290624378
  0.1814488226734357  0.2337391802159818  0.6226074872545406
  0.3224402404635541  0.7623213308128416  0.6058978423687628
  0.3141684319833090  0.8974984610708533  0.3654678898121765
  0.8224422672942224  0.2623948184754091  0.6056265069362041
  0.8141537551443732  0.3973409328535695  0.3653276965963964
  0.2112006786166603  0.9945221517173481  0.4988772501758088
  0.4010055996815676  0.8615548480403927  0.7498516985409214
  0.3003487893061710  0.2121462748799673  0.1753025883325414
  0.7111502125433092  0.4945756136374704  0.4987235726955018
  0.9009771500433197  0.3612202997430762  0.7497644721998434
  0.8003343215038128  0.7119621664854729  0.1752124040364043
  0.7890368263072906  0.0029013655150199  0.4971741037700024
  0.5991136746798844  0.1357073135763412  0.2461374889935138
  0.6997252479509349  0.7856214194807940  0.8205706773939895
  0.2890873846828800  0.5028424652780238  0.4973254920619991
  0.0992260388312776  0.6362784642430656  0.2461614021857351
  0.1995784481301496  0.2851341429639593  0.8207111354777602
  0.4750139901729460  0.2042728415893144  0.4506155452415023
  0.9749831586936023  0.7042322558047298  0.4506684046705562
  0.5298599392967687  0.1424841737655910  0.5483692657062490
  0.8210315049198159  0.1858493151478365  0.0360449777670600
  0.6923116264977506  0.0939200295352123  0.0406023199211329
  0.0297813621603518  0.6421975215702679  0.5485124717760496
  0.3210914865240600  0.6857843764765301  0.0362531287445480
  0.1923871413387276  0.5942759621655440  0.0408877129290705
  0.5250697718953554  0.7914975172118180  0.5450985366671444
  0.0251675385263947  0.2915481128645201  0.5448367614803754
  0.4702406760757278  0.8532409072633095  0.4472697751190346
  0.1790173037896582  0.8118498465458999  0.9598929955848369
  0.3077765952425776  0.9034373459131573  0.9553375577532234
  0.9703849235499844  0.3534519873537790  0.4469278017545831
  0.6789105857574417  0.3114901736196565  0.9595868264615137
  0.8076241364317024  0.4034231981954368  0.9550746030158713
  0.4301126149095255  0.1417594950831517  0.2695600696090873
  0.2531355481423152  0.8105716681024530  0.7880402288523369
  0.9300899812356040  0.6419922814800464  0.2694920047395036
  0.7531115552382179  0.3103130166214949  0.7877536929207906
  0.5699588473769627  0.8543919364628874  0.7261286453734078
  0.7468647901947547  0.1874967693781825  0.2077629909353454
  0.0699149065561201  0.3540052509029327  0.7260985017939551
  0.2470451296397486  0.6874024885016816  0.2081414641741367
  0.5134885347764747  0.6307187795817504  0.6018523690030726
  0.5807785748274862  0.8043323061886298  0.5101236193174767
  0.9462370825166513  0.8022003003811574  0.2175543735870185
  0.7548451131748581  0.1424443996576791  0.8296295633598902
  0.4784053664385540  0.7638539335517879  0.3881767270745429
  0.4145251296341994  0.8255762110062020  0.4827247482009078
  0.0569341177582611  0.4471244052100246  0.7814121158676721
  0.2949577438608670  0.6544004713808634  0.2635490057801296
  0.4866243235675760  0.3650132024197008  0.3938067663882071
  0.4193037809094254  0.1916278488093781  0.4855849497515825
  0.6707150259996382  0.5256660946677630  0.4453381788746359
  0.0540402129683941  0.1934522529891643  0.7777790716884724
  0.2452328974982222  0.8552183552893042  0.1661985598745440
  0.5217949973753893  0.2319878026683288  0.6074113596557743
  0.5855502642709997  0.1699098816584473  0.5128409818658330
  0.3293485996444316  0.4713604189753829  0.5510820121040656
  0.9427037468469488  0.5483072109606079  0.2143561111934996
  0.7052326793678702  0.3434941673486828  0.7322476635931715
  0.0338892809561058  0.6004910622053686  0.3278329714432582
  0.9661928098672817  0.3955784715429291  0.6676410698778424
  0.7294375570854489  0.5720496811761551  0.8406277460275534
  0.5338519262219008  0.0998632115300633  0.3279757605114155
  0.4662297031996969  0.8961708929766027  0.6677116261484428
  0.7705024919870128  0.9255390119695516  0.1551284095063623
  0.2705602423087510  0.4256692863926148  0.1552915473854536
  0.2295163508559138  0.0722644139181923  0.8409574277745702
  0.1706997924100829  0.0251697329705943  0.4456249851753979
  0.8293736231036883  0.9718431814107505  0.5507738888678678
  0.5540111807675847  0.6939467313978334  0.7779035884263236
  0.5570636113322154  0.9476923048101034  0.7813619832552493
  0.4426279933576148  0.0478004731191452  0.2145552536013260
  0.4463949720629789  0.3018142528831613  0.2175443384861210
  0.2052368749031576  0.8438494785211526  0.7326164036297391
  0.2548455632546950  0.6427430212250935  0.8299585385026842
  0.7449127332853210  0.3552505056388736  0.1657133959377970
  0.7948471705480277  0.1550694989707456  0.2630090972511803
  0.2977179817974026  0.0078317546809383  0.0049347322212218
  0.3547793668431067  0.9619631100975974  0.8951924645928865
  0.1453910598010859  0.5356499724934322  0.1009959078007909
  0.2025151565465954  0.4898499366766278  0.9913472464922500
  0.3338757271537756  0.5855144321068534  0.9853077616691543
  0.3665598135952761  0.6854672754749361  0.0939355767697631
  0.6453211737232394  0.0352226069118737  0.1007653676091579
  0.7024871274457201 -0.0105150015428567  0.9910684870730038
  0.8339698482538038  0.0855642840850507  0.9851727109934689
  0.8664261200044071  0.1858111031436292  0.0938342071114576
  0.6659191908649321  0.4117058787523225  0.0104694990357507
  0.6335338196816461  0.3114425591922487  0.9017893007584478
  0.8546168782919232  0.4621425763695550  0.8949680451533827
  0.7974852500360273  0.5077684633824416  0.0046611264793340
  0.0855022049819056  0.6698621769997231  0.5131098066551205
  0.0216238492186161  0.7313683844412234  0.6077075127833965
  0.0136172247935671  0.1306439998458303  0.6013963355862995
  0.0809090478468178  0.3045196997089941  0.5099686693211525
  0.9192660161999181  0.6915565668952046  0.4855955720052721
  0.9866134436626468  0.8650695111807959  0.3940425014456794
  0.9787041398494791  0.2644588514161381  0.3876681196078627
  0.9146538122105234  0.3253950564062722  0.4822790287461652
  0.1660452773450873  0.9121171576343650  0.0107708060499382
  0.1336460434878150  0.8118639064970825  0.9020566434975624
  0.7567265545379820  0.0890004164298655  0.1154267938502730
  0.2568048755018879  0.5891054632558747  0.1157237550753659
  0.2433420348947191  0.9087204431011605  0.8805226224284566
  0.7432269650382729  0.4085089638098083  0.8802325299115463
  0.4800564451973731  0.0757329474840054  0.3728862685353203
  0.9800819987734949  0.5760682655651344  0.3727574223755412
  0.5200059675985391  0.9200460689851268  0.6228157582780127
  0.0199885429725335  0.4196760998033424  0.6227602184885402
  0.2501420829181161  0.2487740794373243  0.4979112830726373
  0.7500517262473422  0.2487186020871236  0.4978912095025886
  0.7501516540469808  0.7487165373715892  0.4978752287797154
  0.2501011631378726  0.7486319959560096  0.4981051789365818
  0.3303182224581091  0.8969018682737013  0.6837200704354746
  0.3316908255943509  0.1254959836550949  0.2992548995553723
  0.8303226832857333  0.3967891980641761  0.6835473752045668
  0.8316576238253420  0.6253543567906692  0.2991760384884419
  0.6698089004316213  0.1005798551348610  0.3122428338176346
  0.6684162885698479  0.8719791905627695  0.6965548905450254
  0.1698738480028546  0.6007048656180904  0.3124231125760040
  0.1683756611030662  0.3717746617843740  0.6966261298259954
 
  0.00000000E+00  0.00000000E+00  0.00000000E+00
  0.00000000E+00  0.00000000E+00  0.00000000E+00
  0.00000000E+00  0.00000000E+00  0.00000000E+00
  0.00000000E+00  0.00000000E+00  0.00000000E+00
  0.00000000E+00  0.00000000E+00  0.00000000E+00
  0.00000000E+00  0.00000000E+00  0.00000000E+00
  0.00000000E+00  0.00000000E+00  0.00000000E+00
  0.00000000E+00  0.00000000E+00  0.00000000E+00
  0.00000000E+00  0.00000000E+00  0.00000000E+00
  0.00000000E+00  0.00000000E+00  0.00000000E+00
  0.00000000E+00  0.00000000E+00  0.00000000E+00
  0.00000000E+00  0.00000000E+00  0.00000000E+00
  0.00000000E+00  0.00000000E+00  0.00000000E+00
  0.00000000E+00  0.00000000E+00  0.00000000E+00
  0.00000000E+00  0.00000000E+00  0.00000000E+00
  0.00000000E+00  0.00000000E+00  0.00000000E+00
  0.00000000E+00  0.00000000E+00  0.00000000E+00
  0.00000000E+00  0.00000000E+00  0.00000000E+00
  0.00000000E+00  0.00000000E+00  0.00000000E+00
  0.00000000E+00  0.00000000E+00  0.00000000E+00
  0.00000000E+00  0.00000000E+00  0.00000000E+00
  0.00000000E+00  0.00000000E+00  0.00000000E+00
  0.00000000E+00  0.00000000E+00  0.00000000E+00
  0.00000000E+00  0.00000000E+00  0.00000000E+00
  0.00000000E+00  0.00000000E+00  0.00000000E+00
  0.00000000E+00  0.00000000E+00  0.00000000E+00
  0.00000000E+00  0.00000000E+00  0.00000000E+00
  0.00000000E+00  0.00000000E+00  0.00000000E+00
  0.00000000E+00  0.00000000E+00  0.00000000E+00
  0.00000000E+00  0.00000000E+00  0.00000000E+00
  0.00000000E+00  0.00000000E+00  0.00000000E+00
  0.00000000E+00  0.00000000E+00  0.00000000E+00
  0.00000000E+00  0.00000000E+00  0.00000000E+00
  0.00000000E+00  0.00000000E+00  0.00000000E+00
  0.00000000E+00  0.00000000E+00  0.00000000E+00
  0.00000000E+00  0.00000000E+00  0.00000000E+00
  0.00000000E+00  0.00000000E+00  0.00000000E+00
  0.00000000E+00  0.00000000E+00  0.00000000E+00
  0.00000000E+00  0.00000000E+00  0.00000000E+00
  0.00000000E+00  0.00000000E+00  0.00000000E+00
  0.00000000E+00  0.00000000E+00  0.00000000E+00
  0.00000000E+00  0.00000000E+00  0.00000000E+00
  0.00000000E+00  0.00000000E+00  0.00000000E+00
  0.00000000E+00  0.00000000E+00  0.00000000E+00
  0.00000000E+00  0.00000000E+00  0.00000000E+00
  0.00000000E+00  0.00000000E+00  0.00000000E+00
  0.00000000E+00  0.00000000E+00  0.00000000E+00
  0.00000000E+00  0.00000000E+00  0.00000000E+00
  0.00000000E+00  0.00000000E+00  0.00000000E+00
  0.00000000E+00  0.00000000E+00  0.00000000E+00
  0.00000000E+00  0.00000000E+00  0.00000000E+00
  0.00000000E+00  0.00000000E+00  0.00000000E+00
  0.00000000E+00  0.00000000E+00  0.00000000E+00
  0.00000000E+00  0.00000000E+00  0.00000000E+00
  0.00000000E+00  0.00000000E+00  0.00000000E+00
  0.00000000E+00  0.00000000E+00  0.00000000E+00
  0.00000000E+00  0.00000000E+00  0.00000000E+00
  0.00000000E+00  0.00000000E+00  0.00000000E+00
  0.00000000E+00  0.00000000E+00  0.00000000E+00
  0.00000000E+00  0.00000000E+00  0.00000000E+00
  0.00000000E+00  0.00000000E+00  0.00000000E+00
  0.00000000E+00  0.00000000E+00  0.00000000E+00
  0.00000000E+00  0.00000000E+00  0.00000000E+00
  0.00000000E+00  0.00000000E+00  0.00000000E+00
  0.00000000E+00  0.00000000E+00  0.00000000E+00
  0.00000000E+00  0.00000000E+00  0.00000000E+00
  0.00000000E+00  0.00000000E+00  0.00000000E+00
  0.00000000E+00  0.00000000E+00  0.00000000E+00
  0.00000000E+00  0.00000000E+00  0.00000000E+00
  0.00000000E+00  0.00000000E+00  0.00000000E+00
  0.00000000E+00  0.00000000E+00  0.00000000E+00
  0.00000000E+00  0.00000000E+00  0.00000000E+00
  0.00000000E+00  0.00000000E+00  0.00000000E+00
  0.00000000E+00  0.00000000E+00  0.00000000E+00
  0.00000000E+00  0.00000000E+00  0.00000000E+00
  0.00000000E+00  0.00000000E+00  0.00000000E+00
  0.00000000E+00  0.00000000E+00  0.00000000E+00
  0.00000000E+00  0.00000000E+00  0.00000000E+00
  0.00000000E+00  0.00000000E+00  0.00000000E+00
  0.00000000E+00  0.00000000E+00  0.00000000E+00
  0.00000000E+00  0.00000000E+00  0.00000000E+00
  0.00000000E+00  0.00000000E+00  0.00000000E+00
  0.00000000E+00  0.00000000E+00  0.00000000E+00
  0.00000000E+00  0.00000000E+00  0.00000000E+00
  0.00000000E+00  0.00000000E+00  0.00000000E+00
  0.00000000E+00  0.00000000E+00  0.00000000E+00
  0.00000000E+00  0.00000000E+00  0.00000000E+00
  0.00000000E+00  0.00000000E+00  0.00000000E+00
  0.00000000E+00  0.00000000E+00  0.00000000E+00
  0.00000000E+00  0.00000000E+00  0.00000000E+00
  0.00000000E+00  0.00000000E+00  0.00000000E+00
  0.00000000E+00  0.00000000E+00  0.00000000E+00
  0.00000000E+00  0.00000000E+00  0.00000000E+00
  0.00000000E+00  0.00000000E+00  0.00000000E+00
  0.00000000E+00  0.00000000E+00  0.00000000E+00
  0.00000000E+00  0.00000000E+00  0.00000000E+00
  0.00000000E+00  0.00000000E+00  0.00000000E+00
  0.00000000E+00  0.00000000E+00  0.00000000E+00
  0.00000000E+00  0.00000000E+00  0.00000000E+00
  0.00000000E+00  0.00000000E+00  0.00000000E+00
  0.00000000E+00  0.00000000E+00  0.00000000E+00
  0.00000000E+00  0.00000000E+00  0.00000000E+00
  0.00000000E+00  0.00000000E+00  0.00000000E+00
  0.00000000E+00  0.00000000E+00  0.00000000E+00
  0.00000000E+00  0.00000000E+00  0.00000000E+00
  0.00000000E+00  0.00000000E+00  0.00000000E+00
  0.00000000E+00  0.00000000E+00  0.00000000E+00
  0.00000000E+00  0.00000000E+00  0.00000000E+00
  0.00000000E+00  0.00000000E+00  0.00000000E+00
  0.00000000E+00  0.00000000E+00  0.00000000E+00
  0.00000000E+00  0.00000000E+00  0.00000000E+00
  0.00000000E+00  0.00000000E+00  0.00000000E+00
  0.00000000E+00  0.00000000E+00  0.00000000E+00
  0.00000000E+00  0.00000000E+00  0.00000000E+00
  0.00000000E+00  0.00000000E+00  0.00000000E+00
  0.00000000E+00  0.00000000E+00  0.00000000E+00
  0.00000000E+00  0.00000000E+00  0.00000000E+00
  0.00000000E+00  0.00000000E+00  0.00000000E+00
  0.00000000E+00  0.00000000E+00  0.00000000E+00
  0.00000000E+00  0.00000000E+00  0.00000000E+00
  0.00000000E+00  0.00000000E+00  0.00000000E+00
  0.00000000E+00  0.00000000E+00  0.00000000E+00
  0.00000000E+00  0.00000000E+00  0.00000000E+00
  0.00000000E+00  0.00000000E+00  0.00000000E+00
  0.00000000E+00  0.00000000E+00  0.00000000E+00
  0.00000000E+00  0.00000000E+00  0.00000000E+00
  0.00000000E+00  0.00000000E+00  0.00000000E+00
  0.00000000E+00  0.00000000E+00  0.00000000E+00
  0.00000000E+00  0.00000000E+00  0.00000000E+00
  0.00000000E+00  0.00000000E+00  0.00000000E+00
  0.00000000E+00  0.00000000E+00  0.00000000E+00
  0.00000000E+00  0.00000000E+00  0.00000000E+00
