CIF file
1.0
       19.0312995911         0.0000000000         0.0000000000
        0.0000000000         6.9520998001         0.0000000000
       -0.2543465108         0.0000000000        11.3832586221
    O    C    H    N   Al    P
   28   24   60    8    4    8
Direct
     0.325300008         0.173599005         0.620700002
     0.309899986         0.188899994         0.363400012
     0.825299978         0.673599005         0.620700002
     0.809899986         0.688899994         0.363400012
     0.674700022         0.173599005         0.379299998
     0.690100014         0.188899994         0.636600018
     0.174700007         0.673599005         0.379299998
     0.190099999         0.688899994         0.636600018
     0.674700022         0.826399028         0.379299998
     0.690100014         0.811100006         0.636600018
     0.174700007         0.326400995         0.379299998
     0.190099999         0.311100006         0.636600018
     0.325300008         0.826399028         0.620700002
     0.309899986         0.811100006         0.363400012
     0.825299978         0.326400995         0.620700002
     0.809899986         0.311100006         0.363400012
     0.236300007         0.000000000         0.500400007
     0.405800015         0.000000000         0.794000030
     0.300799996         0.000000000         0.174700007
     0.736299992         0.500000000         0.500400007
     0.905799985         0.500000000         0.794000030
     0.800800025         0.500000000         0.174700007
     0.763700008         0.000000000         0.499599993
     0.594200015         0.000000000         0.206000000
     0.699199975         0.000000000         0.825299978
     0.263700008         0.500000000         0.499599993
     0.094200000         0.500000000         0.206000000
     0.199200004         0.500000000         0.825299978
     0.481299996         0.190299004         0.444599986
     0.981299996         0.690298975         0.444599986
     0.518700004         0.190299004         0.555400014
     0.805800021         0.124899998         0.043499999
     0.678600013         0.215800002         0.039999999
     0.018700000         0.690298975         0.555400014
     0.305799991         0.624899983         0.043499999
     0.178599998         0.715799987         0.039999999
     0.518700004         0.809698999         0.555400014
     0.018700000         0.309698999         0.555400014
     0.481299996         0.809698999         0.444599986
     0.194199994         0.875100017         0.956499994
     0.321399987         0.784200013         0.959999979
     0.981299996         0.309698999         0.444599986
     0.694199979         0.375099987         0.956499994
     0.821399987         0.284200013         0.959999979
     0.421799988         0.000000000         0.289600015
     0.273900002         0.000000000         0.800100029
     0.921800017         0.500000000         0.289600015
     0.773899972         0.500000000         0.800100029
     0.578199983         0.000000000         0.710399985
     0.726100028         0.000000000         0.199900001
     0.078199998         0.500000000         0.710399985
     0.226099998         0.500000000         0.199900001
     0.495990008         0.697470009         0.610610008
     0.572849989         0.763239980         0.537949979
     0.928059995         0.624849975         0.231419995
     0.802940011         0.369859010         0.777830005
     0.504350007         0.697440028         0.389820009
     0.427549988         0.763378978         0.461950004
     0.071939997         0.624849975         0.768580019
     0.275489986         0.506860018         0.251439989
     0.504299998         0.302520007         0.389319986
     0.427619994         0.236760005         0.462630004
     0.702690005         0.512790024         0.562629998
     0.071939997         0.375149995         0.768580019
     0.197060004         0.630129993         0.222169995
     0.495990008         0.302549988         0.610610008
     0.573260009         0.236638993         0.537859976
     0.297309995         0.512790024         0.437370002
     0.928059995         0.375149995         0.231419995
     0.726140022         0.492760003         0.743969977
     0.041120000         0.502730012         0.198620006
     0.955569983         0.508149981         0.765150011
     0.752539992         0.002080000         0.822950006
     0.566609979         0.117320001         0.224380001
     0.433389992         0.882679999         0.775610030
     0.748109996         0.490579993         0.176750004
     0.248060003         0.995599985         0.184560001
     0.252059996         0.501578987         0.816229999
     0.202690005         0.987209976         0.562629998
     0.797309995         0.012790000         0.437370002
     0.571940005         0.875150025         0.768580019
     0.571940005         0.124849997         0.768580019
     0.428059995         0.875150025         0.231419995
     0.428059995         0.124849997         0.231419995
     0.223360002         0.977890015         0.752810001
     0.302940011         0.869858980         0.777830005
     0.697059989         0.130141005         0.222169995
     0.775489986         0.006860000         0.251439989
     0.344619989         0.881009996         0.026380001
     0.365020007         0.756929994         0.900839984
     0.139559999         0.743420005         0.107199997
     0.156250000         0.590718985         0.993380010
     0.318450004         0.559239984         0.958649993
     0.358539999         0.667730987         0.072600000
     0.635360003         0.236820996         0.100460000
     0.663699985         0.091270000         0.986549973
     0.818449974         0.059239998         0.958649993
     0.858539999         0.167721003         0.072600000
     0.642000020         0.438490987         0.941399992
     0.676989973         0.263550997         0.894469976
     0.865010023         0.256940007         0.900839984
     0.844609976         0.381020010         0.026380001
     0.075220004         0.736679971         0.540130019
     0.992540002         0.803390026         0.612259984
     0.993969977         0.197459996         0.614650011
     0.074819997         0.263309985         0.536790013
     0.924780011         0.736679971         0.459870011
     0.007460000         0.803390026         0.387739986
     0.006030000         0.197459996         0.385349989
     0.925180018         0.263309985         0.463209987
     0.137360007         0.892198980         0.945770025
     0.181810006         0.799040973         0.872529984
     0.741199970         0.156399995         0.113600001
     0.241200000         0.656400025         0.113600001
     0.258800000         0.843599975         0.886399984
     0.758800030         0.343600005         0.886399984
     0.480100006         0.000000000         0.380800009
     0.980099976         0.500000000         0.380800009
     0.519900024         0.000000000         0.619199991
     0.019900000         0.500000000         0.619199991
     0.250000000         0.249999002         0.500000000
     0.750000000         0.249999002         0.500000000
     0.750000000         0.749998987         0.500000000
     0.250000000         0.749998987         0.500000000
     0.347400010         0.000000000         0.697399974
     0.326599985         0.000000000         0.302700013
     0.847400010         0.500000000         0.697399974
     0.826600015         0.500000000         0.302700013
     0.652599990         0.000000000         0.302599996
     0.673399985         0.000000000         0.697300017
     0.152600005         0.500000000         0.302599996
     0.173400000         0.500000000         0.697300017
